
  12    4
  10   10   10   10

   0   0   0   0   0   3 2 4 5 
   4  10  10  10  10   1 3 
   7  10  10  10  10   3 11 10 6 
   4  10  10  10  10   3 11 10 6 
   9  10  10  10  10   3 11 10 6 
   3  10  10  10  10   1 7 
   5  10  10  10  10   1 8 
   3  10  10  10  10   1 9 
   1  10  10  10  10   1 12
   2  10  10  10  10   1 12
   4  10  10  10  10   1 12
   0   0   0   0   0   0 
